NAME: random-57-11250
TYPE: TSP
COMMENT: size=57 seed=11250
DIMENSION: 116
EDGE_WEIGHT_TYPE: EUC_2D
NODE_COORD_SECTION
+0 750 337
-0 750 337
+1 29 439
-1 737 361
+2 376 45
-2 842 829
+3 844 464
-3 903 277
+4 900 608
-4 489 103
+5 438 528
-5 875 101
+6 207 481
-6 752 168
+7 687 214
-7 323 122
+8 56 899
-8 340 526
+9 51 927
-9 347 80
+10 737 709
-10 787 675
+11 387 651
-11 65 806
+12 151 127
-12 169 272
+13 922 476
-13 473 669
+14 969 594
-14 984 143
+15 981 775
-15 474 917
+16 197 871
-16 132 60
+17 686 887
-17 596 563
+18 51 90
-18 777 925
+19 608 739
-19 401 642
+20 886 230
-20 84 235
+21 1 696
-21 796 480
+22 529 88
-22 919 188
+23 894 722
-23 450 1
+24 155 748
-24 737 569
+25 782 442
-25 293 118
+26 587 643
-26 781 213
+27 736 271
-27 941 304
+28 617 810
-28 987 116
+29 841 479
-29 120 851
+30 119 667
-30 149 980
+31 356 705
-31 753 894
+32 855 416
-32 734 505
+33 423 745
-33 770 683
+34 316 627
-34 315 986
+35 714 794
-35 868 348
+36 886 594
-36 35 65
+37 858 235
-37 660 136
+38 951 941
-38 123 637
+39 275 78
-39 779 502
+40 914 227
-40 37 458
+41 107 979
-41 694 741
+42 127 948
-42 175 439
+43 458 372
-43 47 330
+44 138 957
-44 680 816
+45 246 314
-45 300 543
+46 593 863
-46 685 675
+47 739 452
-47 253 276
+48 912 291
-48 809 100
+49 306 404
-49 276 781
+50 103 97
-50 565 161
+51 328 412
-51 988 61
+52 789 171
-52 514 683
+53 600 277
-53 487 400
+54 824 894
-54 682 792
+55 101 818
-55 586 749
+56 928 250
-56 883 319
+57 132 386
-57 573 236
PRECEDENCE_SECTION
+0 -0
+1 -1
+2 -2
+3 -3
+4 -4
+5 -5
+6 -6
+7 -7
+8 -8
+9 -9
+10 -10
+11 -11
+12 -12
+13 -13
+14 -14
+15 -15
+16 -16
+17 -17
+18 -18
+19 -19
+20 -20
+21 -21
+22 -22
+23 -23
+24 -24
+25 -25
+26 -26
+27 -27
+28 -28
+29 -29
+30 -30
+31 -31
+32 -32
+33 -33
+34 -34
+35 -35
+36 -36
+37 -37
+38 -38
+39 -39
+40 -40
+41 -41
+42 -42
+43 -43
+44 -44
+45 -45
+46 -46
+47 -47
+48 -48
+49 -49
+50 -50
+51 -51
+52 -52
+53 -53
+54 -54
+55 -55
+56 -56
+57 -57
EOF
